100
3430
17 59
50 194
8 43
86 33
81 192
98 76
73 16
49 137
2 143
91 94
99 174
35 88
75 131
52 103
92 28
4 103
38 37
96 141
8 113
48 51
42 108
24 144
3 102
76 67
13 49
71 53
71 170
80 80
33 81
23 73
7 151
25 101
100 13
53 190
45 93
29 19
20 152
9 30
92 183
69 127
55 118
33 91
26 180
7 191
53 153
96 179
36 72
15 64
28 165
44 52
69 57
89 176
29 83
55 15
50 100
59 126
2 66
63 67
24 34
8 64
45 167
39 55
34 31
14 155
34 118
11 21
19 81
27 128
87 116
63 197
56 93
35 164
60 167
65 149
52 88
20 76
61 89
23 162
59 18
45 116
75 81
6 198
91 175
27 15
56 153
45 25
67 174
94 57
31 191
67 29
68 35
77 193
30 80
80 42
44 83
92 65
86 189
68 200
34 184
85 30
